50

99 23 259
97 49 544
97 24 249
96 8 563
95 33 539
89 30 402
88 37 435
83 14 436
81 27 683
81 1 702
79 34 348
77 21 351
76 21 243
75 36 630
74 13 342
61 29 385
55 22 494
51 11 606
50 19 696
50 10 419
48 12 516
48 24 696
47 13 667
46 13 636
45 23 724
42 2 342
42 11 562
38 13 634
35 4 546
34 2 419
32 11 434
32 2 254
31 9 706
26 10 388
25 7 688
21 8 495
14 6 255
13 4 583
11 3 581
10 5 351
9 3 638
9 4 317
9 4 667
8 2 374
8 2 356
7 2 445
5 1 670
5 2 277
5 1 280
1 1 738
